Problem:    
Rows:       163
Columns:    57 (42 integer, 42 binary)
Non-zeros:  496
Status:     INTEGER OPTIMAL
Objective:  value = 5.261369 (MINimum)

   No.   Row name        Activity     Lower bound   Upper bound
------ ------------    ------------- ------------- -------------
     1 r.5                   1005.26             0               
     2 r.6                  -995.743      -997.969               
     3 r.7                   5.26137             0               
     4 r.8                   4.25704      -995.617               
     5 r.9                   5.26137             0               
     6 r.10                  -997.78      -998.273               
     7 r.11                  1005.26             0               
     8 r.12                 -995.743      -996.236               
     9 r.13                  1005.26             0               
    10 r.14                 -997.835      -998.573               
    11 r.15                  5.26137             0               
    12 r.16                 -996.524      -996.722               
    13 r.17                  5.26137             0               
    14 r.18                 0.492853      -999.826               
    15 r.19                  1005.26             0               
    16 r.20                 -999.507      -999.705               
    17 r.21                  1005.26             0               
    18 r.22                 -999.262       -999.46               
    19 r.23                  5.26137             0               
    20 r.24                 -998.296      -998.494               
    21 r.25                  1005.26             0               
    22 r.26                 -999.802      -999.802               
    23 r.27                  5.26137             0               
    24 r.28                   0.1981      -999.581               
    25 r.29                  1005.26             0               
    26 r.30                 -994.739      -998.996               
    27 r.31                  5.26137             0               
    28 r.32                  5.26137      -995.686               
    29 r.33                        1             1             = 
    30 r.34                        1             1             = 
    31 r.35                        1             1             = 
    32 r.36                        1             1             = 
    33 r.37                        1             1             = 
    34 r.38                        1             1             = 
    35 r.39                        1             1             = 
    36 r.40                     1001             2               
    37 r.41                    -1001         -1001               
    38 r.42                  997.963      -998.273               
    39 r.43                     1001             2               
    40 r.44                    -1001         -1001               
    41 r.45                     2000      -996.236               
    42 r.46                        2             2               
    43 r.47                       -2         -1001               
    44 r.48                 -2.09165      -998.573               
    45 r.49                     1000             2               
    46 r.50                    -1000         -1001               
    47 r.51                  999.219      -996.722               
    48 r.52                 -996.236      -997.969               
    49 r.53                  3.76418      -995.617               
    50 r.54                 -996.236      -997.969               
    51 r.55                  3.76418      -995.617               
    52 r.56                 -996.481      -997.969               
    53 r.57                  3.51892      -995.617               
    54 r.58                  2.55262      -997.969               
    55 r.59                  1002.55      -995.617               
    56 r.60                 -998.996      -998.996               
    57 r.61                  1.00433      -995.686               
    58 r.62                 -998.996      -998.996               
    59 r.63                  1.00433      -995.686               
    60 r.64                     1001             2               
    61 r.65                    -1001         -1001               
    62 r.66                  3002.04       2.03101               
    63 r.67                     1001             2               
    64 r.68                    -1001         -1001               
    65 r.69                     2000       4.38334               
    66 r.70                     1001             2               
    67 r.71                    -1001         -1001               
    68 r.72                  2999.95      -998.573               
    69 r.73                     1001             2               
    70 r.74                    -1001         -1001               
    71 r.75                  999.219      -996.722               
    72 r.76                 -998.273      -998.273               
    73 r.77                 -996.236      -996.236               
    74 r.78                 -998.273      -998.273               
    75 r.79                 -996.236      -996.236               
    76 r.80                     1001             2               
    77 r.81                    -1001         -1001               
    78 r.82                  2998.52       -999.46               
    79 r.83                     1001             2               
    80 r.84                    -1001         -1001               
    81 r.85                  997.447      -998.494               
    82 r.86                 -997.978      -998.273               
    83 r.87                 -995.941      -996.236               
    84 r.88                 -997.978      -998.273               
    85 r.89                 -995.941      -996.236               
    86 r.90                  3.04105      -998.996               
    87 r.91                  1003.04      -995.686               
    88 r.92                 -998.996      -998.996               
    89 r.93                  1.00433      -995.686               
    90 r.94                        2             2               
    91 r.95                       -2         -1001               
    92 r.96                  2.09165       2.03101               
    93 r.97                     1000             2               
    94 r.98                    -1000         -1001               
    95 r.99                  3000.78       4.38334               
    96 r.100                    1001             2               
    97 r.101                   -1001         -1001               
    98 r.102                 1000.05       1.72747               
    99 r.103                    1001             2               
   100 r.104                   -1001         -1001               
   101 r.105                 3000.78       3.76418               
   102 r.106                    1001             2               
   103 r.107                   -1001         -1001               
   104 r.108                 1998.33      -999.826               
   105 r.109                    1001             2               
   106 r.110                   -1001         -1001               
   107 r.111                 2997.02      -999.705               
   108 r.112                       2             2               
   109 r.113                      -2         -1001               
   110 r.114                -1.42728       -999.46               
   111 r.115                    1000             2               
   112 r.116                   -1000         -1001               
   113 r.117                 1998.23      -998.494               
   114 r.118                -998.033      -998.573               
   115 r.119                -996.722      -996.722               
   116 r.120                -998.033      -998.573               
   117 r.121                -996.722      -996.722               
   118 r.122                -996.904      -998.996               
   119 r.123                 3.09598      -995.686               
   120 r.124                 1.78528      -998.996               
   121 r.125                 1001.79      -995.686               
   122 r.126                    1001             2               
   123 r.127                   -1001         -1001               
   124 r.128                 2001.67       1.42728               
   125 r.129                    1001             2               
   126 r.130                   -1001         -1001               
   127 r.131                 1002.98       3.27799               
   128 r.132                    1001             2               
   129 r.133                   -1001         -1001               
   130 r.134                 2000.25       -999.46               
   131 r.135                    1001             2               
   132 r.136                   -1001         -1001               
   133 r.137                 1001.21      -998.494               
   134 r.138                0.294753      -999.826               
   135 r.139                -999.705      -999.705               
   136 r.140                0.294753      -999.826               
   137 r.141                -999.705      -999.705               
   138 r.142                    1001             2               
   139 r.143                   -1001         -1001               
   140 r.144                 1001.48       1.72747               
   141 r.145                    1001             2               
   142 r.146                   -1001         -1001               
   143 r.147                 3002.55       3.76418               
   144 r.148                       2             2               
   145 r.149                      -2         -1001               
   146 r.150                 1.42728       1.42728               
   147 r.151                    1000             2               
   148 r.152                   -1000         -1001               
   149 r.153                 2001.77       3.27799               
   150 r.154                    1001             2               
   151 r.155                   -1001         -1001               
   152 r.156                 1999.75      0.173589               
   153 r.157                    1001             2               
   154 r.158                   -1001         -1001               
   155 r.159                 2998.79      0.294753               
   156 r.160                 -999.46       -999.46               
   157 r.161                -998.494      -998.494               
   158 r.162                 -999.46       -999.46               
   159 r.163                -998.494      -998.494               
   160 r.164                -995.477      -998.996               
   161 r.165                 4.52326      -995.686               
   162 r.166                 3.55695      -998.996               
   163 r.167                 1003.56      -995.686               

   No. Column name       Activity     Lower bound   Upper bound
------ ------------    ------------- ------------- -------------
     1 tt                    5.26137             0               
     2 s_1_1        *              1             0             1 
     3 t_1_1                 1.00433             0               
     4 s_1_7        *              1             0             1 
     5 s_2_1        *              0             0             1 
     6 t_2_1                 1.00433             0               
     7 s_2_7        *              0             0             1 
     8 s_1_2        *              0             0             1 
     9 t_1_2                 1003.04             0               
    10 s_2_2        *              1             0             1 
    11 t_2_2                 1.00433             0               
    12 s_1_3        *              1             0             1 
    13 t_1_3                 3.09598             0               
    14 s_2_3        *              0             0             1 
    15 t_2_3                 1001.79             0               
    16 s_1_4        *              0             0             1 
    17 t_1_4                 4.76852             0               
    18 s_2_4        *              1             0             1 
    19 t_2_4                 4.76852             0               
    20 s_1_5        *              1             0             1 
    21 t_1_5                 4.52326             0               
    22 s_2_5        *              0             0             1 
    23 t_2_5                 1003.56             0               
    24 s_1_6        *              1             0             1 
    25 t_1_6                 5.06327             0               
    26 s_2_6        *              0             0             1 
    27 t_2_6                 5.06327             0               
    28 t_1_7                       0             0               
    29 t_2_7                       0             0               
    30 r_1_1_2      *              1             0             1 
    31 u_1_1_2      *              0             0             1 
    32 r_2_1_2      *              1             0             1 
    33 u_2_1_2      *              0             0             1 
    34 r_1_1_3      *              0             0             1 
    35 u_1_1_3      *              0             0             1 
    36 r_2_1_3      *              1             0             1 
    37 u_2_1_3      *              0             0             1 
    38 r_1_2_3      *              1             0             1 
    39 u_1_2_3      *              0             0             1 
    40 r_2_2_3      *              1             0             1 
    41 u_2_2_3      *              0             0             1 
    42 r_1_2_5      *              1             0             1 
    43 u_1_2_5      *              0             0             1 
    44 r_2_2_5      *              1             0             1 
    45 u_2_2_5      *              0             0             1 
    46 r_1_3_4      *              1             0             1 
    47 u_1_3_4      *              0             0             1 
    48 r_2_3_4      *              1             0             1 
    49 u_2_3_4      *              0             0             1 
    50 r_1_3_5      *              0             0             1 
    51 u_1_3_5      *              0             0             1 
    52 r_2_3_5      *              1             0             1 
    53 u_2_3_5      *              0             0             1 
    54 r_1_4_5      *              1             0             1 
    55 u_1_4_5      *              0             0             1 
    56 r_2_4_5      *              1             0             1 
    57 u_2_4_5      *              0             0             1 

Integer feasibility conditions:

KKT.PE: max.abs.err = 4.55e-13 on row 68
        max.rel.err = 7.57e-17 on row 95
        High quality

KKT.PB: max.abs.err = 0.00e+00 on row 0
        max.rel.err = 0.00e+00 on row 0
        High quality

End of output
